p cnf 161616 96
10209 0
10305 0
10404 0
10548 0
10906 0
11102 0
11542 0
11603 0
20342 0
20546 0
20802 0
20904 0
21048 0
21307 0
30448 0
30545 0
30604 0
30743 0
30903 0
31646 0
40147 0
40303 0
40709 0
40808 0
41043 0
41348 0
50248 0
50309 0
51545 0
60105 0
60344 0
60407 0
60645 0
60704 0
60843 0
60948 0
61006 0
61247 0
61601 0
70208 0
70503 0
71143 0
80142 0
80201 0
81009 0
81203 0
81302 0
81604 0
90106 0
90443 0
90502 0
90747 0
91503 0
91645 0
100642 0
101244 0
101504 0
110102 0
110504 0
110705 0
110809 0
110942 0
111003 0
111148 0
111343 0
111408 0
111644 0
120244 0
121407 0
121547 0
130406 0
130701 0
130943 0
131046 0
131405 0
131647 0
140146 0
140806 0
141002 0
141103 0
141208 0
141345 0
150409 0
150708 0
150847 0
150905 0
151245 0
151402 0
160144 0
160247 0
160643 0
160845 0
161248 0
161304 0
161406 0
161509 0
